c array.sh: path:     /data/qbf/qbf20/PCNF/s01423_PR_4_90.qdimacs
c array.sh: name:     s01423_PR_4_90
c array.sh: task:     97
c array.sh: host:     c3n28
c array.sh: uname:    Linux c3n28 4.15.0-135-generic #139-Ubuntu SMP Mon Jan 18 17:38:24 UTC 2021 x86_64 x86_64 x86_64 GNU/Linux
c array.sh: start:    Thu Feb 18 09:56:11 CET 2021
c array.sh: noturbo:  1
c array.sh: governor: 32 performance
c array.sh: tmp:      1%
c array.sh: unzipped: /tmp/local-unzipped-18838260-97-s01423_PR_4_90.cnf
*** qbfcert: using tmp directory:
*** qbfcert:   /tmp
trace-size: 198938
solving-res 20
proof-size: 28706
cert-size: 13828
cert-header: aag 2978 2839 0 10 10
merged-header: p cnf 25400 58361
merged-size: 939067
c ---- [ banner ] ------------------------------------------------------------
c
c KISSAT SAT Solver
c Copyright (c) 2019-2020 Armin Biere JKU Linz
c 
c Version 1.0.3 59813addcacc4d6fb880ebdd63685600475aa940
c gcc (Ubuntu 7.5.0-3ubuntu1~18.04) 7.5.0 -W -Wall -O3 -DNEMBEDDED -DNDEBUG -DNMETRICS -DNSTATISTICS
c Sun Feb 14 23:58:54 CET 2021 Linux cluster3 4.15.0-135-generic x86_64
c
c ---- [ parsing ] -----------------------------------------------------------
c
c opened and reading DIMACS file:
c 
c   /tmp/qbfcert_merged_cnf8140.cnf
c 
c parsed 'p cnf 25400 58361' header
c closing input after reading 939067 bytes (917 KB)
c finished parsing after 0.02 seconds
c
c ---- [ solving ] -----------------------------------------------------------
c
c  seconds reductions redundant irredundant
c         MB   restarts    trail     variables
c          level  conflicts   glue        remaining
c
c *  0.02  5 0  0  0   1   0 0% 0 58351 2440 10%
c {  0.02  5 0  0  0   1   0 0% 0 58351 2440 10%
c }  0.02  5 0  0  0   1   0 0% 0 58351 2440 10%
c 0  0.02  5 0  0  0   1   0 0% 0 58351 2440 10%
c
c ---- [ result ] ------------------------------------------------------------
c
s UNSATISFIABLE
c
c ---- [ profiling ] ---------------------------------------------------------
c
c           0.02   98.54 %  parse
c           0.00    0.66 %  search
c           0.00    0.19 %  focused
c           0.00    0.00 %  simplify
c =============================================
c           0.02  100.00 %  total
c
c ---- [ statistics ] --------------------------------------------------------
c
c conflicts:                                1               56.36 per second
c decisions:                                0                0.00 per conflict
c propagations:                         19875          1120223    per second
c
c ---- [ resources ] ---------------------------------------------------------
c
c maximum-resident-set-size:          5677056 bytes          5 MB
c process-time:                             0s               0.02 seconds
c
c ---- [ shutting down ] -----------------------------------------------------
c
c exit 20
*** qbfcert: VALID
c array.sh: end:      Thu Feb 18 09:56:11 CET 2021
